Maximize
9.0 x0 +18.0 x1 +27.0 x2 +31.0 x3 
Subject To
-9.0 x0 +0.0 x1 -9.0 x2 -5.0 x3  <= 11
-9.0 x0 +0.0 x1 -9.0 x2 -5.0 x3  >= -1
0.0 x0 -9.0 x1 -9.0 x2 -5.0 x3  <= 11
0.0 x0 -9.0 x1 -9.0 x2 -5.0 x3  >= -1
0.0 x0 -9.0 x1 -9.0 x2 -5.0 x3  <= 11
0.0 x0 -9.0 x1 -9.0 x2 -5.0 x3  >= -1
0.0 x0 +0.0 x1 +0.0 x2 -2.0 x3  <= 11
0.0 x0 +0.0 x1 +0.0 x2 -2.0 x3  >= -1
0.0 x0 +0.0 x1 +0.0 x2 +1.0 x3  <= 11
0.0 x0 +0.0 x1 +0.0 x2 +1.0 x3  >= -1
x2 - x4 = 0
End
